8767307.0
2112
0 1 3 4 6 7 8 9 10 11 12 13 16 18 19 20 21 23 24 26 27 28 29 33 34 35 38 40 41 42 43 44 47 50 51 52 53 56 57 58 60 62 63 64 65 66 67 68 69 71 72 73 74 75 77 78 79 80 81 82 84 85 86 90 92 94 95 96 98 99 101 102 105 107 108 109 110 112 116 118 121 124 127 128 129 131 132 133 134 136 137 138 140 141 142 144 145 147 151 152 153 154 155 156 157 160 162 165 166 167 169 172 175 176 177 179 180 182 183 184 185 186 187 188 189 190 192 197 